solution status: time limit reached
objective value:                                  -96
x15                                                 1 	(obj:-1)
x16                                                 1 	(obj:-1)
x33                                                 1 	(obj:-1)
x50                                                 1 	(obj:-1)
x67                                                 1 	(obj:-1)
x84                                                 1 	(obj:-1)
x101                                                1 	(obj:-1)
x118                                                1 	(obj:-1)
x135                                                1 	(obj:-1)
x147                                                1 	(obj:-1)
x165                                                1 	(obj:-1)
x191                                                1 	(obj:-1)
x212                                                1 	(obj:-1)
x227                                                1 	(obj:-1)
x254                                                1 	(obj:-1)
x264                                                1 	(obj:-1)
x295                                                1 	(obj:-1)
x334                                                1 	(obj:-1)
x364                                                1 	(obj:-1)
x371                                                1 	(obj:-1)
x405                                                1 	(obj:-1)
x430                                                1 	(obj:-1)
x436                                                1 	(obj:-1)
x464                                                1 	(obj:-1)
x486                                                1 	(obj:-1)
x507                                                1 	(obj:-1)
x521                                                1 	(obj:-1)
x533                                                1 	(obj:-1)
x559                                                1 	(obj:-1)
x574                                                1 	(obj:-1)
x578                                                1 	(obj:-1)
x609                                                1 	(obj:-1)
x631                                                1 	(obj:-1)
x675                                                1 	(obj:-1)
x695                                                1 	(obj:-1)
x719                                                1 	(obj:-1)
x743                                                1 	(obj:-1)
x761                                                1 	(obj:-1)
x769                                                1 	(obj:-1)
x798                                                1 	(obj:-1)
x806                                                1 	(obj:-1)
x831                                                1 	(obj:-1)
x853                                                1 	(obj:-1)
x875                                                1 	(obj:-1)
x889                                                1 	(obj:-1)
x916                                                1 	(obj:-1)
x959                                                1 	(obj:-1)
x1007                                               1 	(obj:-1)
x1012                                               1 	(obj:-1)
x1035                                               1 	(obj:-1)
x1085                                               1 	(obj:-1)
x1090                                               1 	(obj:-1)
x1127                                               1 	(obj:-1)
x1153                                               1 	(obj:-1)
x1168                                               1 	(obj:-1)
x1198                                               1 	(obj:-1)
x1215                                               1 	(obj:-1)
x1221                                               1 	(obj:-1)
x1234                                               1 	(obj:-1)
x1253                                               1 	(obj:-1)
x1285                                               1 	(obj:-1)
x1319                                               1 	(obj:-1)
x1332                                               1 	(obj:-1)
x1367                                               1 	(obj:-1)
x1401                                               1 	(obj:-1)
x1408                                               1 	(obj:-1)
x1433                                               1 	(obj:-1)
x1454                                               1 	(obj:-1)
x1464                                               1 	(obj:-1)
x1473                               0.999999999999999 	(obj:-1)
x1492                                               1 	(obj:-1)
x1510                                               1 	(obj:-1)
x1525                                               1 	(obj:-1)
x1542                                               1 	(obj:-1)
x1569                                               1 	(obj:-1)
x1587                                               1 	(obj:-1)
x1638                                               1 	(obj:-1)
x1652                                               1 	(obj:-1)
x1665                                               1 	(obj:-1)
x1698                                               1 	(obj:-1)
x1734                                               1 	(obj:-1)
x1774                                               1 	(obj:-1)
x1782                                               1 	(obj:-1)
x1833                                               1 	(obj:-1)
x1868                                               1 	(obj:-1)
x1886                                               1 	(obj:-1)
x1903                                               1 	(obj:-1)
x1915                                               1 	(obj:-1)
x1923                                               1 	(obj:-1)
x1942                                               1 	(obj:-1)
x1953                                               1 	(obj:-1)
x1969                                               1 	(obj:-1)
x1996                                               1 	(obj:-1)
x2009                                               1 	(obj:-1)
x2023                                               1 	(obj:-1)
x2036                                               1 	(obj:-1)
x2062                                               1 	(obj:0)
x2069                                               1 	(obj:0)
x2094                                               1 	(obj:0)
x2096                                               1 	(obj:0)
x2114                                               1 	(obj:0)
x2139                                               1 	(obj:0)
x2149                                               1 	(obj:0)
x2165                                               1 	(obj:0)
x2189                                               1 	(obj:0)
x2207                                               1 	(obj:0)
x2223                                               1 	(obj:0)
x2238                                               1 	(obj:0)
x2241                                               1 	(obj:0)
x2260                                               1 	(obj:0)
x2286                                               1 	(obj:0)
x2293                                               1 	(obj:0)
x2315                                               1 	(obj:0)
x2321                                               1 	(obj:0)
x2351                                               1 	(obj:0)
x2353                                               1 	(obj:0)
x2372                                               1 	(obj:0)
x2393                                               1 	(obj:0)
x2411                                               1 	(obj:0)
x2422                                               1 	(obj:0)
x2443                                               1 	(obj:0)
x2455                                               1 	(obj:0)
x2470                                               1 	(obj:0)
x2484                                               1 	(obj:0)
x2505                                               1 	(obj:0)
x2519                                               1 	(obj:0)
x2528                                               1 	(obj:0)
x2550                                               1 	(obj:0)
x2575                                               1 	(obj:0)
x2581                                               1 	(obj:0)
x2603                                               1 	(obj:0)
x2623                                               1 	(obj:0)
x2624                                               1 	(obj:0)
x2643                                               1 	(obj:0)
x2668                                               1 	(obj:0)
x2687                                               1 	(obj:0)
x2703                                               1 	(obj:0)
x2710                                               1 	(obj:0)
x2721                                               1 	(obj:0)
x2741                                               1 	(obj:0)
x2755                                               1 	(obj:0)
x2772                                               1 	(obj:0)
x2785                                               1 	(obj:0)
x2806                                               1 	(obj:0)
x2827                                               1 	(obj:0)
x2837                                               1 	(obj:0)
x2862                                               1 	(obj:0)
x2866                                               1 	(obj:0)
x2901                                               1 	(obj:0)
x2918                                               1 	(obj:0)
x2942                                               1 	(obj:0)
x2944                                               1 	(obj:0)
x2974                                               1 	(obj:0)
x2991                                               1 	(obj:0)
x2997                                               1 	(obj:0)
x3017                                               1 	(obj:0)
x3029                                               1 	(obj:0)
x3044                                               1 	(obj:0)
x3057                                               1 	(obj:0)
x3073                               0.999999999999999 	(obj:0)
x3095                                               1 	(obj:0)
x3107                                               1 	(obj:0)
x3127                                               1 	(obj:0)
x3142                                               1 	(obj:0)
x3167                                               1 	(obj:0)
x3168                                               1 	(obj:0)
x3188                                               1 	(obj:0)
x3212                                               1 	(obj:0)
x3219                                               1 	(obj:0)
x3241                                               1 	(obj:0)
x3263                                               1 	(obj:0)
x3266                                               1 	(obj:0)
x3287                                               1 	(obj:0)
x3298                                               1 	(obj:0)
x3318                                               1 	(obj:0)
x3335                                               1 	(obj:0)
x3350                                               1 	(obj:0)
x3360                                               1 	(obj:0)
x3381                                               1 	(obj:0)
x3400                                               1 	(obj:0)
x3415                                               1 	(obj:0)
x3438                                               1 	(obj:0)
x3449                                               1 	(obj:0)
x3460                                               1 	(obj:0)
